Route #1: 26
Route #2: 6 51 17
Route #3: 4 30 2 28 22
Route #4: 34 46 8 35 53 7
Route #5: 12 40 9 39 58
Route #6: 45 29 5 37 20 15 57
Route #7: 31 10 38 11
Route #8: 33 16 49 24 18 50 55
Route #9: 52 27 13 54 19 14
Route #10: 44 3 32 25
Route #11: 23 56 41 42 43 1
Route #12: 48 47 21 59 36
cost: 852.8917834603451
